p edges 707 1106
n 1 46.5167
n 2 22.9776
n 3 2.91751
n 4 37.8525
n 5 6.57717
n 6 29.7017
n 7 8.02721
n 8 27.712
n 9 6.80588
n 10 7.80588
n 11 32.2953
n 12 2.05317
n 13 3.05317
n 14 30.9729
n 15 4.92456
n 16 30.5162
n 17 2.48808
n 18 3.48808
n 19 30.209
n 20 0.169184
n 21 1.16918
n 22 31.7466
n 23 0.359048
n 24 1.35905
n 25 34.8975
n 26 1.09632
n 27 2.09632
n 28 36.0847
n 29 2.63801
n 30 27.0872
n 31 3.40798
n 32 4.40798
n 33 29.7621
n 34 5.50947
n 35 6.50947
n 36 34.4279
n 37 1.02512
n 38 2.02512
n 39 36.8226
n 40 4.20784
n 41 5.20784
n 42 24.2643
n 43 1.83524
n 44 2.83524
n 45 37.8442
n 46 3.60364
n 47 4.60364
n 48 40.3083
n 49 7.77336
n 50 27.023
n 51 2.5403
n 52 36.9064
n 53 2.56206
n 54 35.7625
n 55 2.08455
n 56 48.9841
n 57 2.15197
n 58 3.15197
n 59 0.0525245
n 60 2.15816
n 61 4.95945
n 62 2.21434
n 63 9.29724
n 64 10.2972
n 65 3.20667
n 66 4.20667
n 67 2.9122
n 68 3.9122
n 69 4.17311
n 70 5.17311
n 71 1.62391
n 72 0.304221
n 73 1.30422
n 74 2.97397
n 75 3.97397
n 76 3.22531
n 77 4.22531
n 78 7.4299
n 79 8.4299
n 80 3.95398
n 81 4.95398
n 82 1.67926
n 83 2.67926
n 84 0.239705
n 85 2.2147
n 86 5.49646
n 87 6.49646
n 88 11.998
n 89 12.998
n 90 6.12173
n 91 39.0342
n 92 1.91729
n 93 2.91729
n 94 8.94169
n 95 9.94169
n 96 3.32434
n 97 2.12116
n 98 1.30031
n 99 4.92615
n 100 2.49208
n 101 3.49208
n 102 0.0532324
n 103 1.05323
n 104 1.73026
n 105 0.449607
n 106 2.86959
n 107 0.106669
n 108 1.10667
n 109 2.72373
n 110 3.72373
n 111 1.21915
n 112 2.21915
n 113 4.11786
n 114 2.55063
n 115 5.34936
n 116 0.426895
n 117 1.4269
n 118 5.15757
n 119 6.15757
n 120 10.0933
n 121 11.0933
n 122 0.534912
n 123 53.9119
n 124 9.6462
n 125 5.03288
n 126 6.03288
n 127 2.98621
n 128 3.98621
n 129 1.23036
n 130 2.23036
n 131 0.829273
n 132 1.82927
n 133 5.58236
n 134 3.57927
n 135 4.57927
n 136 0.478053
n 137 1.47805
n 138 1.1541
n 139 2.8663
n 140 5.05833
n 141 6.05833
n 142 2.43195
n 143 3.43195
n 144 2.90097
n 145 3.90097
n 146 2.73728
n 147 3.73728
n 148 10.4994
n 149 0.004428
n 150 1.00443
n 151 4.28051
n 152 7.69799
n 153 4.91917
n 154 5.91917
n 155 4.03403
n 156 7.43032
n 157 52.9164
n 158 2.48111
n 159 7.38689
n 160 1.05225
n 161 2.05225
n 162 8.21534
n 163 5.37941
n 164 0.680572
n 165 1.05402
n 166 2.05402
n 167 5.09801
n 168 6.09801
n 169 3.67229
n 170 4.74217
n 171 3.00313
n 172 1.63159
n 173 2.63159
n 174 7.1365
n 175 8.1365
n 176 4.26635
n 177 5.26635
n 178 4.65955
n 179 6.87496
n 180 7.87496
n 181 1.31668
n 182 2.31668
n 183 8.31443
n 184 1.8724
n 185 0.112075
n 186 1.28235
n 187 2.28235
n 188 31.8265
n 189 0.167069
n 190 2.2616
n 191 1.9386
n 192 0.447363
n 193 1.77026
n 194 2.77026
n 195 0.141107
n 196 1.14111
n 197 3.13781
n 198 4.13781
n 199 0.806085
n 200 1.80609
n 201 1.50019
n 202 0.152601
n 203 1.1526
n 204 3.30197
n 205 1.21791
n 206 1.32967
n 207 2.38667
n 208 5.2845
n 209 3.53541
n 210 4.53541
n 211 4.28124
n 212 5.28124
n 213 4.02487
n 214 5.02487
n 215 1.49919
n 216 2.49919
n 217 2.28583
n 218 3.28583
n 219 2.78177
n 220 33.7433
n 221 3.82747
n 222 4.82747
n 223 1.73417
n 224 2.73417
n 225 1.04873
n 226 2.04873
n 227 1.05295
n 228 2.05295
n 229 1.6228
n 230 2.6228
n 231 0.429276
n 232 1.42928
n 233 0.720557
n 234 7.51885
n 235 2.85049
n 236 3.85049
n 237 2.80769
n 238 3.80769
n 239 0.429116
n 240 0.651087
n 241 1.65109
n 242 2.32683
n 243 5.1909
n 244 2.33275
n 245 3.33275
n 246 0.12783
n 247 1.12783
n 248 2.26491
n 249 5.57497
n 250 6.57497
n 251 1.16509
n 252 0.467203
n 253 1.79286
n 254 37.4976
n 255 0.804932
n 256 1.80493
n 257 2.61712
n 258 3.61712
n 259 4.18863
n 260 1.85021
n 261 3.37637
n 262 4.37637
n 263 5.07292
n 264 4.3945
n 265 0.697718
n 266 1.69772
n 267 0.595721
n 268 0.797088
n 269 4.36521
n 270 0.003926
n 271 1.00393
n 272 0.186588
n 273 1.18659
n 274 5.89537
n 275 6.89537
n 276 0.773025
n 277 1.95531
n 278 2.95531
n 279 1.58134
n 280 2.58134
n 281 1.4996
n 282 2.4996
n 283 2.9213
n 284 2.49612
n 285 3.49612
n 286 2.27504
n 287 3.27504
n 288 40.9158
n 289 2.24855
n 290 3.24855
n 291 3.45388
n 292 4.45388
n 293 5.61562
n 294 6.61562
n 295 2.26275
n 296 3.67624
n 297 0.660771
n 298 3.50581
n 299 0.110496
n 300 0.680203
n 301 6.6403
n 302 7.6403
n 303 3.94365
n 304 4.94365
n 305 3.73158
n 306 4.73158
n 307 3.96088
n 308 1.04245
n 309 2.04245
n 310 0.508325
n 311 2.97402
n 312 3.97402
n 313 2.10871
n 314 3.10871
n 315 1.83814
n 316 2.83814
n 317 1.06647
n 318 1.77536
n 319 2.77536
n 320 5.74412
n 321 45.157
n 322 1.43884
n 323 1.41483
n 324 2.41483
n 325 3.01162
n 326 4.01162
n 327 1.79933
n 328 5.45639
n 329 6.45639
n 330 3.08417
n 331 8.42804
n 332 9.42804
n 333 9.74525
n 334 0.87344
n 335 8.62136
n 336 2.72486
n 337 1.32313
n 338 2.32313
n 339 2.56649
n 340 0.334761
n 341 0.335698
n 342 1.26304
n 343 4.56465
n 344 5.56465
n 345 2.98252
n 346 2.46982
n 347 6.22251
n 348 4.31469
n 349 48.7544
n 350 0.310895
n 351 2.14677
n 352 3.14677
n 353 0.0570081
n 354 1.05701
n 355 9.40626
n 356 10.4063
n 357 0.14204
n 358 1.14204
n 359 2.39099
n 360 5.38738
n 361 6.38738
n 362 2.48406
n 363 6.58775
n 364 5.03273
n 365 6.03273
n 366 1.97411
n 367 2.97411
n 368 10.091
n 369 0.393941
n 370 4.87131
n 371 3.09194
n 372 4.09194
n 373 1.60854
n 374 5.32064
n 375 6.32064
n 376 5.75562
n 377 4.85893
n 378 5.85893
n 379 2.51958
n 380 3.51958
n 381 1.40169
n 382 2.40169
n 383 54.7863
n 384 4.3127
n 385 5.3127
n 386 3.74328
n 387 0.0623035
n 388 1.0623
n 389 5.04995
n 390 7.199
n 391 1.66388
n 392 2.21883
n 393 4.84247
n 394 5.84247
n 395 6.86918
n 396 7.86918
n 397 3.1423
n 398 4.1423
n 399 2.34493
n 400 6.08481
n 401 7.08481
n 402 4.0204
n 403 5.0204
n 404 2.42493
n 405 3.42493
n 406 3.00733
n 407 4.00733
n 408 4.15249
n 409 8.38281
n 410 9.38281
n 411 1.93115
n 412 2.93115
n 413 0.415894
n 414 1.41589
n 415 8.85676
n 416 9.85676
n 417 0.376579
n 418 1.37658
n 419 33.6764
n 420 0.637277
n 421 1.63728
n 422 6.18529
n 423 1.73485
n 424 2.73485
n 425 0.574649
n 426 1.57465
n 427 4.35388
n 428 1.51474
n 429 0.322506
n 430 1.32251
n 431 3.55214
n 432 2.42761
n 433 3.19951
n 434 4.19951
n 435 6.96071
n 436 3.89639
n 437 4.89639
n 438 0.780441
n 439 1.78044
n 440 2.04988
n 441 3.04988
n 442 4.70916
n 443 0.314891
n 444 1.31489
n 445 0.632455
n 446 1.63246
n 447 1.59554
n 448 2.59554
n 449 0.529917
n 450 1.52992
n 451 4.11399
n 452 0.23061
n 453 39.5462
n 454 0.287217
n 455 1.28722
n 456 4.29109
n 457 5.29109
n 458 8.47852
n 459 9.47852
n 460 1.0157
n 461 0.930887
n 462 0.48349
n 463 6.18119
n 464 7.18119
n 465 2.10481
n 466 1.14168
n 467 1.73853
n 468 2.73853
n 469 2.92755
n 470 3.92755
n 471 2.72845
n 472 2.10366
n 473 3.10366
n 474 3.7891
n 475 4.7891
n 476 2.24467
n 477 3.24467
n 478 1.79873
n 479 2.79873
n 480 0.342784
n 481 1.34278
n 482 2.12262
n 483 1.54022
n 484 1.93233
n 485 6.01945
n 486 47.0795
n 487 0.49018
n 488 1.49018
n 489 1.26184
n 490 5.3364
n 491 1.49691
n 492 0.583318
n 493 1.58332
n 494 2.43526
n 495 3.43526
n 496 2.37323
n 497 3.37323
n 498 5.73274
n 499 6.116
n 500 7.116
n 501 3.65903
n 502 4.65903
n 503 2.73004
n 504 3.73004
n 505 0.916052
n 506 2.53519
n 507 1.14268
n 508 2.60846
n 509 3.60846
n 510 4.62403
n 511 7.15029
n 512 8.15029
n 513 6.36508
n 514 1.96971
n 515 2.96971
n 516 0.830661
n 517 9.01016
n 518 32.6705
n 519 0.152777
n 520 1.15278
n 521 3.95468
n 522 0.438992
n 523 1.43899
n 524 0.200987
n 525 1.20099
n 526 2.23832
n 527 3.03892
n 528 4.03892
n 529 0.38699
n 530 1.38699
n 531 0.34709
n 532 1.34709
n 533 3.24614
n 534 4.24614
n 535 0.504327
n 536 3.60441
n 537 4.60441
n 538 2.70258
n 539 0.160785
n 540 1.16078
n 541 3.44105
n 542 4.44105
n 543 1.1019
n 544 2.1019
n 545 2.36285
n 546 0.214244
n 547 1.21424
n 548 3.26686
n 549 7.6644
n 550 1.01216
n 551 0.232641
n 552 45.0781
n 553 1.38298
n 554 2.60369
n 555 0.169869
n 556 6.49524
n 557 7.49524
n 558 2.58814
n 559 0.268476
n 560 1.26848
n 561 2.80507
n 562 3.80507
n 563 0.911996
n 564 1.912
n 565 2.20931
n 566 7.16552
n 567 5.11539
n 568 6.11539
n 569 3.49569
n 570 0.969498
n 571 5.7367
n 572 7.90618
n 573 0.720112
n 574 1.72011
n 575 2.16341
n 576 5.7031
n 577 4.83018
n 578 6.92942
n 579 1.00805
n 580 41.0831
n 581 1.74472
n 582 1.44531
n 583 2.44531
n 584 0.911926
n 585 0.556054
n 586 2.3243
n 587 4.80588
n 588 2.24879
n 589 3.86896
n 590 3.63114
n 591 4.63114
n 592 1.09111
n 593 1.25678
n 594 1.02689
n 595 10.9952
n 596 11.9952
n 597 0.890311
n 598 1.89031
n 599 2.44529
n 600 3.44529
n 601 4.86106
n 602 5.86106
n 603 4.29728
n 604 5.29728
n 605 2.55987
n 606 3.55987
n 607 6.50983
n 608 7.50983
n 609 0.662688
n 610 1.18886
n 611 49.7922
n 612 4.9163
n 613 2.2533
n 614 3.2533
n 615 2.61089
n 616 5.18852
n 617 5.48995
n 618 2.81107
n 619 3.81107
n 620 5.46517
n 621 6.46517
n 622 2.96749
n 623 5.72264
n 624 5.46451
n 625 6.46451
n 626 3.99435
n 627 0.543207
n 628 1.54321
n 629 2.33744
n 630 3.33744
n 631 1.84284
n 632 2.84284
n 633 2.31429
n 634 3.31429
n 635 1.17884
n 636 2.17884
n 637 5.80784
n 638 6.80784
n 639 1.19957
n 640 2.1063
n 641 1.94973
n 642 2.94973
n 643 5.65475
n 644 6.65475
n 645 44.2906
n 646 4.94059
n 647 3.97337
n 648 7.54293
n 649 3.37053
n 650 5.06619
n 651 5.41746
n 652 0.724414
n 653 3.36965
n 654 3.40191
n 655 4.70404
n 656 4.44223
n 657 7.14869
n 658 3.25987
n 659 4.25987
n 660 4.09378
n 661 5.09378
n 662 2.04596
n 663 3.04596
n 664 1.24466
n 665 2.24466
n 666 0.843561
n 667 1.84356
n 668 4.00338
n 669 5.00338
n 670 0.272324
n 671 1.27232
n 672 1.42181
n 673 2.42181
n 674 2.14073
n 675 30.2405
n 676 2.62756
n 677 3.62756
n 678 1.02009
n 679 2.02009
n 680 0.584587
n 681 1.58459
n 682 1.31728
n 683 2.31728
n 684 0.839607
n 685 2.19414
n 686 6.22128
n 687 3.40131
n 688 5.7666
n 689 6.7666
n 690 2.53516
n 691 3.64452
n 692 0.125372
n 693 1.12537
n 694 1.50242
n 695 2.50698
n 696 3.50698
n 697 2.03864
n 698 3.03864
n 699 0.686942
n 700 4.34303
n 701 5.34303
n 702 2.10882
n 703 3.10882
n 704 0.647469
n 705 5.37179
n 706 3.95808
n 707 4.95808
e 1 3
e 2 3
e 1 5
e 4 5
e 1 7
e 6 7
e 9 10
e 10 1
e 9 8
e 12 13
e 13 1
e 12 11
e 1 15
e 14 15
e 17 18
e 18 1
e 17 16
e 20 21
e 21 1
e 20 19
e 23 24
e 24 1
e 23 22
e 26 27
e 27 1
e 26 25
e 1 29
e 28 29
e 31 32
e 32 1
e 31 30
e 34 35
e 35 1
e 34 33
e 37 38
e 38 1
e 37 36
e 40 41
e 41 1
e 40 39
e 43 44
e 44 1
e 43 42
e 46 47
e 47 1
e 46 45
e 1 49
e 48 49
e 1 51
e 50 51
e 1 53
e 52 53
e 1 55
e 54 55
e 57 58
e 58 56
e 57 2
e 56 59
e 4 59
e 56 60
e 6 60
e 56 61
e 8 61
e 56 62
e 11 62
e 63 64
e 64 56
e 63 14
e 65 66
e 66 56
e 65 16
e 67 68
e 68 56
e 67 19
e 69 70
e 70 56
e 69 22
e 56 71
e 25 71
e 72 73
e 73 56
e 72 28
e 74 75
e 75 56
e 74 30
e 76 77
e 77 56
e 76 33
e 78 79
e 79 56
e 78 36
e 80 81
e 81 56
e 80 39
e 82 83
e 83 56
e 82 42
e 56 84
e 45 84
e 56 85
e 48 85
e 86 87
e 87 56
e 86 50
e 88 89
e 89 56
e 88 52
e 56 90
e 54 90
e 92 93
e 93 91
e 92 2
e 94 95
e 95 91
e 94 4
e 91 96
e 6 96
e 91 97
e 8 97
e 91 98
e 11 98
e 91 99
e 14 99
e 100 101
e 101 91
e 100 16
e 102 103
e 103 91
e 102 19
e 91 104
e 22 104
e 91 105
e 25 105
e 91 106
e 28 106
e 107 108
e 108 91
e 107 30
e 109 110
e 110 91
e 109 33
e 111 112
e 112 91
e 111 36
e 91 113
e 39 113
e 91 114
e 42 114
e 91 115
e 45 115
e 116 117
e 117 91
e 116 48
e 118 119
e 119 91
e 118 50
e 120 121
e 121 91
e 120 52
e 91 122
e 54 122
e 123 124
e 2 124
e 125 126
e 126 123
e 125 4
e 127 128
e 128 123
e 127 6
e 129 130
e 130 123
e 129 8
e 131 132
e 132 123
e 131 11
e 123 133
e 14 133
e 134 135
e 135 123
e 134 16
e 136 137
e 137 123
e 136 19
e 123 138
e 22 138
e 123 139
e 25 139
e 140 141
e 141 123
e 140 28
e 142 143
e 143 123
e 142 30
e 144 145
e 145 123
e 144 33
e 146 147
e 147 123
e 146 36
e 123 148
e 39 148
e 149 150
e 150 123
e 149 42
e 123 151
e 45 151
e 123 152
e 48 152
e 153 154
e 154 123
e 153 50
e 123 155
e 52 155
e 123 156
e 54 156
e 157 158
e 2 158
e 157 159
e 4 159
e 160 161
e 161 157
e 160 6
e 157 162
e 8 162
e 157 163
e 11 163
e 157 164
e 14 164
e 165 166
e 166 157
e 165 16
e 167 168
e 168 157
e 167 19
e 157 169
e 22 169
e 157 170
e 25 170
e 157 171
e 28 171
e 172 173
e 173 157
e 172 30
e 174 175
e 175 157
e 174 33
e 176 177
e 177 157
e 176 36
e 157 178
e 39 178
e 179 180
e 180 157
e 179 42
e 181 182
e 182 157
e 181 45
e 157 183
e 48 183
e 157 184
e 50 184
e 157 185
e 52 185
e 186 187
e 187 157
e 186 54
e 188 189
e 2 189
e 188 190
e 4 190
e 188 191
e 6 191
e 188 192
e 8 192
e 193 194
e 194 188
e 193 11
e 195 196
e 196 188
e 195 14
e 197 198
e 198 188
e 197 16
e 199 200
e 200 188
e 199 19
e 188 201
e 22 201
e 202 203
e 203 188
e 202 25
e 188 204
e 28 204
e 188 205
e 30 205
e 188 206
e 33 206
e 188 207
e 36 207
e 188 208
e 39 208
e 209 210
e 210 188
e 209 42
e 211 212
e 212 188
e 211 45
e 213 214
e 214 188
e 213 48
e 215 216
e 216 188
e 215 50
e 217 218
e 218 188
e 217 52
e 188 219
e 54 219
e 221 222
e 222 220
e 221 2
e 223 224
e 224 220
e 223 4
e 225 226
e 226 220
e 225 6
e 227 228
e 228 220
e 227 8
e 229 230
e 230 220
e 229 11
e 231 232
e 232 220
e 231 14
e 220 233
e 16 233
e 220 234
e 19 234
e 235 236
e 236 220
e 235 22
e 237 238
e 238 220
e 237 25
e 220 239
e 28 239
e 240 241
e 241 220
e 240 30
e 220 242
e 33 242
e 220 243
e 36 243
e 244 245
e 245 220
e 244 39
e 246 247
e 247 220
e 246 42
e 220 248
e 45 248
e 249 250
e 250 220
e 249 48
e 220 251
e 50 251
e 220 252
e 52 252
e 220 253
e 54 253
e 255 256
e 256 254
e 255 2
e 257 258
e 258 254
e 257 4
e 254 259
e 6 259
e 254 260
e 8 260
e 261 262
e 262 254
e 261 11
e 254 263
e 14 263
e 254 264
e 16 264
e 265 266
e 266 254
e 265 19
e 254 267
e 22 267
e 254 268
e 25 268
e 254 269
e 28 269
e 270 271
e 271 254
e 270 30
e 272 273
e 273 254
e 272 33
e 274 275
e 275 254
e 274 36
e 254 276
e 39 276
e 277 278
e 278 254
e 277 42
e 279 280
e 280 254
e 279 45
e 281 282
e 282 254
e 281 48
e 254 283
e 50 283
e 284 285
e 285 254
e 284 52
e 286 287
e 287 254
e 286 54
e 289 290
e 290 288
e 289 2
e 291 292
e 292 288
e 291 4
e 293 294
e 294 288
e 293 6
e 288 295
e 8 295
e 288 296
e 11 296
e 288 297
e 14 297
e 288 298
e 16 298
e 288 299
e 19 299
e 288 300
e 22 300
e 301 302
e 302 288
e 301 25
e 303 304
e 304 288
e 303 28
e 305 306
e 306 288
e 305 30
e 288 307
e 33 307
e 308 309
e 309 288
e 308 36
e 288 310
e 39 310
e 311 312
e 312 288
e 311 42
e 313 314
e 314 288
e 313 45
e 315 316
e 316 288
e 315 48
e 288 317
e 50 317
e 318 319
e 319 288
e 318 52
e 288 320
e 54 320
e 321 322
e 2 322
e 323 324
e 324 321
e 323 4
e 325 326
e 326 321
e 325 6
e 321 327
e 8 327
e 328 329
e 329 321
e 328 11
e 321 330
e 14 330
e 331 332
e 332 321
e 331 16
e 321 333
e 19 333
e 321 334
e 22 334
e 321 335
e 25 335
e 321 336
e 28 336
e 337 338
e 338 321
e 337 30
e 321 339
e 33 339
e 321 340
e 36 340
e 321 341
e 39 341
e 321 342
e 42 342
e 343 344
e 344 321
e 343 45
e 321 345
e 48 345
e 321 346
e 50 346
e 321 347
e 52 347
e 321 348
e 54 348
e 349 350
e 2 350
e 351 352
e 352 349
e 351 4
e 353 354
e 354 349
e 353 6
e 355 356
e 356 349
e 355 8
e 357 358
e 358 349
e 357 11
e 349 359
e 14 359
e 360 361
e 361 349
e 360 16
e 349 362
e 19 362
e 349 363
e 22 363
e 364 365
e 365 349
e 364 25
e 366 367
e 367 349
e 366 28
e 349 368
e 30 368
e 349 369
e 33 369
e 349 370
e 36 370
e 371 372
e 372 349
e 371 39
e 349 373
e 42 373
e 374 375
e 375 349
e 374 45
e 349 376
e 48 376
e 377 378
e 378 349
e 377 50
e 379 380
e 380 349
e 379 52
e 381 382
e 382 349
e 381 54
e 384 385
e 385 383
e 384 2
e 383 386
e 4 386
e 387 388
e 388 383
e 387 6
e 383 389
e 8 389
e 383 390
e 11 390
e 383 391
e 14 391
e 383 392
e 16 392
e 393 394
e 394 383
e 393 19
e 395 396
e 396 383
e 395 22
e 397 398
e 398 383
e 397 25
e 383 399
e 28 399
e 400 401
e 401 383
e 400 30
e 402 403
e 403 383
e 402 33
e 404 405
e 405 383
e 404 36
e 406 407
e 407 383
e 406 39
e 383 408
e 42 408
e 409 410
e 410 383
e 409 45
e 411 412
e 412 383
e 411 48
e 413 414
e 414 383
e 413 50
e 415 416
e 416 383
e 415 52
e 417 418
e 418 383
e 417 54
e 420 421
e 421 419
e 420 2
e 419 422
e 4 422
e 423 424
e 424 419
e 423 6
e 425 426
e 426 419
e 425 8
e 419 427
e 11 427
e 419 428
e 14 428
e 429 430
e 430 419
e 429 16
e 419 431
e 19 431
e 419 432
e 22 432
e 433 434
e 434 419
e 433 25
e 419 435
e 28 435
e 436 437
e 437 419
e 436 30
e 438 439
e 439 419
e 438 33
e 440 441
e 441 419
e 440 36
e 419 442
e 39 442
e 443 444
e 444 419
e 443 42
e 445 446
e 446 419
e 445 45
e 447 448
e 448 419
e 447 48
e 449 450
e 450 419
e 449 50
e 419 451
e 52 451
e 419 452
e 54 452
e 454 455
e 455 453
e 454 2
e 456 457
e 457 453
e 456 4
e 458 459
e 459 453
e 458 6
e 453 460
e 8 460
e 453 461
e 11 461
e 453 462
e 14 462
e 463 464
e 464 453
e 463 16
e 453 465
e 19 465
e 453 466
e 22 466
e 467 468
e 468 453
e 467 25
e 469 470
e 470 453
e 469 28
e 453 471
e 30 471
e 472 473
e 473 453
e 472 33
e 474 475
e 475 453
e 474 36
e 476 477
e 477 453
e 476 39
e 478 479
e 479 453
e 478 42
e 480 481
e 481 453
e 480 45
e 453 482
e 48 482
e 453 483
e 50 483
e 453 484
e 52 484
e 453 485
e 54 485
e 487 488
e 488 486
e 487 2
e 486 489
e 4 489
e 486 490
e 6 490
e 486 491
e 8 491
e 492 493
e 493 486
e 492 11
e 494 495
e 495 486
e 494 14
e 496 497
e 497 486
e 496 16
e 486 498
e 19 498
e 499 500
e 500 486
e 499 22
e 501 502
e 502 486
e 501 25
e 503 504
e 504 486
e 503 28
e 486 505
e 30 505
e 486 506
e 33 506
e 486 507
e 36 507
e 508 509
e 509 486
e 508 39
e 486 510
e 42 510
e 511 512
e 512 486
e 511 45
e 486 513
e 48 513
e 514 515
e 515 486
e 514 50
e 486 516
e 52 516
e 486 517
e 54 517
e 519 520
e 520 518
e 519 2
e 518 521
e 4 521
e 522 523
e 523 518
e 522 6
e 524 525
e 525 518
e 524 8
e 518 526
e 11 526
e 527 528
e 528 518
e 527 14
e 529 530
e 530 518
e 529 16
e 531 532
e 532 518
e 531 19
e 533 534
e 534 518
e 533 22
e 518 535
e 25 535
e 536 537
e 537 518
e 536 28
e 518 538
e 30 538
e 539 540
e 540 518
e 539 33
e 541 542
e 542 518
e 541 36
e 543 544
e 544 518
e 543 39
e 518 545
e 42 545
e 546 547
e 547 518
e 546 45
e 518 548
e 48 548
e 518 549
e 50 549
e 518 550
e 52 550
e 518 551
e 54 551
e 552 553
e 2 553
e 552 554
e 4 554
e 552 555
e 6 555
e 556 557
e 557 552
e 556 8
e 552 558
e 11 558
e 559 560
e 560 552
e 559 14
e 561 562
e 562 552
e 561 16
e 563 564
e 564 552
e 563 19
e 552 565
e 22 565
e 552 566
e 25 566
e 567 568
e 568 552
e 567 28
e 552 569
e 30 569
e 552 570
e 33 570
e 552 571
e 36 571
e 552 572
e 39 572
e 573 574
e 574 552
e 573 42
e 552 575
e 45 575
e 552 576
e 48 576
e 552 577
e 50 577
e 552 578
e 52 578
e 552 579
e 54 579
e 580 581
e 2 581
e 582 583
e 583 580
e 582 4
e 580 584
e 6 584
e 580 585
e 8 585
e 580 586
e 11 586
e 580 587
e 14 587
e 580 588
e 16 588
e 580 589
e 19 589
e 590 591
e 591 580
e 590 22
e 580 592
e 25 592
e 580 593
e 28 593
e 580 594
e 30 594
e 595 596
e 596 580
e 595 33
e 597 598
e 598 580
e 597 36
e 599 600
e 600 580
e 599 39
e 601 602
e 602 580
e 601 42
e 603 604
e 604 580
e 603 45
e 605 606
e 606 580
e 605 48
e 607 608
e 608 580
e 607 50
e 580 609
e 52 609
e 580 610
e 54 610
e 611 612
e 2 612
e 613 614
e 614 611
e 613 4
e 611 615
e 6 615
e 611 616
e 8 616
e 611 617
e 11 617
e 618 619
e 619 611
e 618 14
e 620 621
e 621 611
e 620 16
e 611 622
e 19 622
e 611 623
e 22 623
e 624 625
e 625 611
e 624 25
e 611 626
e 28 626
e 627 628
e 628 611
e 627 30
e 629 630
e 630 611
e 629 33
e 631 632
e 632 611
e 631 36
e 633 634
e 634 611
e 633 39
e 635 636
e 636 611
e 635 42
e 637 638
e 638 611
e 637 45
e 611 639
e 48 639
e 611 640
e 50 640
e 641 642
e 642 611
e 641 52
e 643 644
e 644 611
e 643 54
e 645 646
e 2 646
e 645 647
e 4 647
e 645 648
e 6 648
e 645 649
e 8 649
e 645 650
e 11 650
e 645 651
e 14 651
e 645 652
e 16 652
e 645 653
e 19 653
e 645 654
e 22 654
e 645 655
e 25 655
e 645 656
e 28 656
e 645 657
e 30 657
e 658 659
e 659 645
e 658 33
e 660 661
e 661 645
e 660 36
e 662 663
e 663 645
e 662 39
e 664 665
e 665 645
e 664 42
e 666 667
e 667 645
e 666 45
e 668 669
e 669 645
e 668 48
e 670 671
e 671 645
e 670 50
e 672 673
e 673 645
e 672 52
e 645 674
e 54 674
e 676 677
e 677 675
e 676 2
e 678 679
e 679 675
e 678 4
e 680 681
e 681 675
e 680 6
e 682 683
e 683 675
e 682 8
e 675 684
e 11 684
e 675 685
e 14 685
e 675 686
e 16 686
e 675 687
e 19 687
e 688 689
e 689 675
e 688 22
e 675 690
e 25 690
e 675 691
e 28 691
e 692 693
e 693 675
e 692 30
e 675 694
e 33 694
e 695 696
e 696 675
e 695 36
e 697 698
e 698 675
e 697 39
e 675 699
e 42 699
e 700 701
e 701 675
e 700 45
e 702 703
e 703 675
e 702 48
e 675 704
e 50 704
e 675 705
e 52 705
e 706 707
e 707 675
e 706 54
